0 3844 9654
1 7778 5402
2 1408 1405
3 5624 2519
4 4928 9884
5 798 5871
6 6484 3360
7 6643 3618
8 759 4205
9 6972 5470
10 7597 2999
11 5749 8634
12 4869 9083
13 849 5168
14 4285 5576
15 2498 9093
16 5316 1790
17 5636 9430
18 2234 8721
19 916 4400
20 5412 9241
21 8703 2907
22 8572 7017
23 9733 6900
24 5398 2953
25 6652 5782
26 7757 7299
27 208 3412
28 7003 1799
29 3224 5846
30 6999 6811
31 9348 6894
32 73 3155
33 8450 358
34 9497 9384
35 128 823
36 2742 6328
37 8524 5368
38 7570 5819
39 760 3009
40 634 1165
41 1705 4699
42 2644 2924
43 2910 8455
44 7137 1936
45 3965 7063
46 9010 3329
47 1417 3165
48 1830 3082
49 9088 6270
